7352
7204
7367
7286
7201
7293
7338
7418
7322
7360
7315
7211
7397
7341
7279
7302
7235
7144
7244
7204
7158
7297
7303
7260
7338
7318
7322
7253
7410
7302
7329
7351
7310
7397
7296
7301
7288
7281
7246
7352
7451
7233
7259
7208
7166
7370
7370
7248
7234
7398
7375
7349
7394
7151
7188
7312
7246
7270
7224
7324
7194
7356
7309
7363
7242
7354
7218
7332
7308
7157
7289
7216
7357
7314
7223
7369
7228
7361
7430
7427
7177
7309
7243
7234
7301
7248
7404
7216
7349
7366
7323
7325
7419
7278
7294
7321
7408
7299
7363
7302
